p cnf 22 121
1 2 0
3 4 0
5 6 0
7 8 0
9 10 0
11 12 0
13 14 0
15 16 0
17 18 0
19 20 0
21 22 0
-1 -3 0
-1 -5 0
-1 -7 0
-1 -9 0
-1 -11 0
-1 -13 0
-1 -15 0
-1 -17 0
-1 -19 0
-1 -21 0
-3 -5 0
-3 -7 0
-3 -9 0
-3 -11 0
-3 -13 0
-3 -15 0
-3 -17 0
-3 -19 0
-3 -21 0
-5 -7 0
-5 -9 0
-5 -11 0
-5 -13 0
-5 -15 0
-5 -17 0
-5 -19 0
-5 -21 0
-7 -9 0
-7 -11 0
-7 -13 0
-7 -15 0
-7 -17 0
-7 -19 0
-7 -21 0
-9 -11 0
-9 -13 0
-9 -15 0
-9 -17 0
-9 -19 0
-9 -21 0
-11 -13 0
-11 -15 0
-11 -17 0
-11 -19 0
-11 -21 0
-13 -15 0
-13 -17 0
-13 -19 0
-13 -21 0
-15 -17 0
-15 -19 0
-15 -21 0
-17 -19 0
-17 -21 0
-19 -21 0
-2 -4 0
-2 -6 0
-2 -8 0
-2 -10 0
-2 -12 0
-2 -14 0
-2 -16 0
-2 -18 0
-2 -20 0
-2 -22 0
-4 -6 0
-4 -8 0
-4 -10 0
-4 -12 0
-4 -14 0
-4 -16 0
-4 -18 0
-4 -20 0
-4 -22 0
-6 -8 0
-6 -10 0
-6 -12 0
-6 -14 0
-6 -16 0
-6 -18 0
-6 -20 0
-6 -22 0
-8 -10 0
-8 -12 0
-8 -14 0
-8 -16 0
-8 -18 0
-8 -20 0
-8 -22 0
-10 -12 0
-10 -14 0
-10 -16 0
-10 -18 0
-10 -20 0
-10 -22 0
-12 -14 0
-12 -16 0
-12 -18 0
-12 -20 0
-12 -22 0
-14 -16 0
-14 -18 0
-14 -20 0
-14 -22 0
-16 -18 0
-16 -20 0
-16 -22 0
-18 -20 0
-18 -22 0
-20 -22 0
